datasets/20l3i.nl
g3 4 1 0	# problem 20l3i
 216 92 1 0 63	# vars, constraints, objectives, ranges, eqns
 0 1	# nonlinear constraints, objectives
 0 0	# network constraints: nonlinear, linear
 0 54 0	# nonlinear vars in constraints, objectives, both
 0 0 0 1	# linear network variables; functions; arith, flags
 0 162 0 0 54	# discrete variables: binary, integer, nonlinear (b,c,o)
 828 198	# nonzeros in Jacobian, gradients
 0 0	# max name lengths: constraints, variables
 0 0 0 0 0	# common exprs: b,c,o,c1,o1
b
2 0
2 0
2 0
2 0
2 0
2 0
2 0
2 0
2 0
2 0
2 0
2 0
2 0
2 0
2 0
2 0
2 0
2 0
2 0
2 0
2 0
2 0
2 0
2 0
2 0
2 0
2 0
2 0
2 0
2 0
2 0
2 0
2 0
2 0
2 0
2 0
2 0
2 0
2 0
2 0
2 0
2 0
2 0
2 0
2 0
2 0
2 0
2 0
2 0
2 0
2 0
2 0
2 0
2 0
0 0 60
0 0 70
0 0 70
0 0 60
0 0 70
0 0 70
0 0 60
0 0 70
0 0 70
0 0 60
0 0 70
0 0 70
0 0 60
0 0 70
0 0 70
0 0 60
0 0 70
0 0 70
0 0 60
0 0 90
0 0 80
0 0 60
0 0 90
0 0 80
0 0 60
0 0 90
0 0 80
0 0 60
0 0 90
0 0 80
0 0 60
0 0 90
0 0 80
0 0 60
0 0 90
0 0 80
0 0 70
0 0 70
0 0 60
0 0 70
0 0 70
0 0 60
0 0 70
0 0 70
0 0 60
0 0 70
0 0 70
0 0 60
0 0 70
0 0 70
0 0 60
0 0 70
0 0 70
0 0 60
0 0 70
0 0 50
0 0 70
0 0 70
0 0 50
0 0 70
0 0 70
0 0 50
0 0 70
0 0 70
0 0 50
0 0 70
0 0 70
0 0 50
0 0 70
0 0 70
0 0 50
0 0 70
0 0 140
0 0 120
0 0 120
0 0 140
0 0 120
0 0 120
0 0 140
0 0 120
0 0 120
0 0 140
0 0 120
0 0 120
0 0 140
0 0 120
0 0 120
0 0 140
0 0 120
0 0 120
0 0 212
0 0 212
0 0 212
0 0 212
0 0 212
0 0 212
0 0 212
0 0 212
0 0 212
0 0 269
0 0 269
0 0 269
0 0 269
0 0 269
0 0 269
0 0 269
0 0 269
0 0 269
0 0 249
0 0 249
0 0 249
0 0 249
0 0 249
0 0 249
0 0 249
0 0 249
0 0 249
0 0 250
0 0 250
0 0 250
0 0 250
0 0 250
0 0 250
0 0 250
0 0 250
0 0 250
0 0 233
0 0 233
0 0 233
0 0 233
0 0 233
0 0 233
0 0 233
0 0 233
0 0 233
0 0 400
0 0 400
0 0 400
0 0 400
0 0 400
0 0 400
0 0 400
0 0 400
0 0 400
0 0 50
0 0 80
0 0 80
0 0 100
0 0 90
0 0 80
0 0 50
0 0 100
0 0 100
0 0 90
0 0 50
0 0 100
0 0 80
0 0 90
0 0 60
0 0 100
0 0 80
0 0 10
r
4 60
4 70
4 70
4 60
4 90
4 80
4 70
4 70
4 60
4 70
4 50
4 70
4 140
4 120
4 120
4 0
4 0
4 0
4 0
4 0
4 0
4 0
4 0
4 0
4 0
4 0
4 0
4 0
4 0
4 0
4 0
4 0
4 0
4 0
4 0
4 0
4 0
4 0
4 0
4 0
4 0
4 0
4 -50
4 -80
4 -80
4 -100
4 -90
4 -80
4 -50
4 -110
4 -120
4 -90
4 -50
4 -150
4 -80
4 -90
4 -60
4 -130
4 -80
4 -10
4 100
4 100
4 100
1 212
1 269
1 249
1 250
1 233
1 432
1 492
1 500
1 663
1 210
1 270
1 280
1 290
1 230
1 220
1 200
1 230
1 200
1 190
1 380
1 212
1 269
1 249
1 250
1 233
1 432
1 492
1 500
1 663
C0
n0
C1
n0
C2
n0
C3
n0
C4
n0
C5
n0
C6
n0
C7
n0
C8
n0
C9
n0
C10
n0
C11
n0
C12
n0
C13
n0
C14
n0
C15
n0
C16
n0
C17
n0
C18
n0
C19
n0
C20
n0
C21
n0
C22
n0
C23
n0
C24
n0
C25
n0
C26
n0
C27
n0
C28
n0
C29
n0
C30
n0
C31
n0
C32
n0
C33
n0
C34
n0
C35
n0
C36
n0
C37
n0
C38
n0
C39
n0
C40
n0
C41
n0
C42
n0
C43
n0
C44
n0
C45
n0
C46
n0
C47
n0
C48
n0
C49
n0
C50
n0
C51
n0
C52
n0
C53
n0
C54
n0
C55
n0
C56
n0
C57
n0
C58
n0
C59
n0
C60
n0
C61
n0
C62
n0
C63
n0
C64
n0
C65
n0
C66
n0
C67
n0
C68
n0
C69
n0
C70
n0
C71
n0
C72
n0
C73
n0
C74
n0
C75
n0
C76
n0
C77
n0
C78
n0
C79
n0
C80
n0
C81
n0
C82
n0
C83
n0
C84
n0
C85
n0
C86
n0
C87
n0
C88
n0
C89
n0
C90
n0
C91
n0
O0 0
o54
18
o2
n10000
o5
o16
o3
o54
3
v0
v18
v36
n-50
n2
o2
n10000
o5
o16
o3
o54
3
v1
v19
v37
n-80
n2
o2
n10000
o5
o16
o3
o54
3
v2
v20
v38
n-80
n2
o2
n10000
o5
o16
o3
o54
3
v3
v21
v39
n-100
n2
o2
n10000
o5
o16
o3
o54
3
v4
v22
v40
n-90
n2
o2
n10000
o5
o16
o3
o54
3
v5
v23
v41
n-80
n2
o2
n10000
o5
o16
o3
o54
3
v6
v24
v42
n-50
n2
o2
n10000
o5
o16
o3
o54
3
v7
v25
v43
n-110
n2
o2
n10000
o5
o16
o3
o54
3
v8
v26
v44
n-120
n2
o2
n10000
o5
o16
o3
o54
3
v9
v27
v45
n-90
n2
o2
n10000
o5
o16
o3
o54
3
v10
v28
v46
n-50
n2
o2
n10000
o5
o16
o3
o54
3
v11
v29
v47
n-150
n2
o2
n10000
o5
o16
o3
o54
3
v12
v30
v48
n-80
n2
o2
n10000
o5
o16
o3
o54
3
v13
v31
v49
n-90
n2
o2
n10000
o5
o16
o3
o54
3
v14
v32
v50
n-60
n2
o2
n10000
o5
o16
o3
o54
3
v15
v33
v51
n-130
n2
o2
n10000
o5
o16
o3
o54
3
v16
v34
v52
n-80
n2
o2
n10000
o5
o16
o3
o54
3
v17
v35
v53
n-10
n2
k215
4
8
12
16
20
24
28
32
36
40
44
48
52
56
60
64
68
72
76
80
84
88
92
96
100
104
108
112
116
120
124
128
132
136
140
144
148
152
156
160
164
168
172
176
180
184
188
192
196
200
204
208
212
216
220
224
228
232
236
240
244
248
252
256
260
264
268
272
276
280
284
288
292
296
300
304
308
312
316
320
324
328
332
336
340
344
348
352
356
360
364
368
372
376
380
384
388
392
396
400
404
408
412
416
420
424
428
432
436
440
444
448
452
456
460
464
468
472
476
480
484
488
492
496
500
504
508
512
516
520
524
528
532
536
540
544
548
552
556
560
564
568
572
576
580
584
588
592
596
600
604
608
612
616
620
624
628
632
636
640
644
648
652
656
660
664
668
672
676
680
684
688
692
696
700
704
708
712
716
720
724
728
732
736
740
744
748
752
756
760
764
768
772
776
780
784
788
792
794
796
798
800
802
804
806
808
810
812
814
816
818
820
822
824
826
J0 6
54 1
57 1
60 1
63 1
66 1
69 1
J1 6
55 1
58 1
61 1
64 1
67 1
70 1
J2 6
56 1
59 1
62 1
65 1
68 1
71 1
J3 6
72 1
75 1
78 1
81 1
84 1
87 1
J4 6
73 1
76 1
79 1
82 1
85 1
88 1
J5 6
74 1
77 1
80 1
83 1
86 1
89 1
J6 6
90 1
93 1
96 1
99 1
102 1
105 1
J7 6
91 1
94 1
97 1
100 1
103 1
106 1
J8 6
92 1
95 1
98 1
101 1
104 1
107 1
J9 6
108 1
111 1
114 1
117 1
120 1
123 1
J10 6
109 1
112 1
115 1
118 1
121 1
124 1
J11 6
110 1
113 1
116 1
119 1
122 1
125 1
J12 6
126 1
129 1
132 1
135 1
138 1
141 1
J13 6
127 1
130 1
133 1
136 1
139 1
142 1
J14 6
128 1
131 1
134 1
137 1
140 1
143 1
J15 8
54 -1
72 -1
90 -1
108 -1
126 -1
144 1
147 1
150 1
J16 8
55 -1
73 -1
91 -1
109 -1
127 -1
145 1
148 1
151 1
J17 8
56 -1
74 -1
92 -1
110 -1
128 -1
146 1
149 1
152 1
J18 8
57 -1
75 -1
93 -1
111 -1
129 -1
153 1
156 1
159 1
J19 8
58 -1
76 -1
94 -1
112 -1
130 -1
154 1
157 1
160 1
J20 8
59 -1
77 -1
95 -1
113 -1
131 -1
155 1
158 1
161 1
J21 8
60 -1
78 -1
96 -1
114 -1
132 -1
162 1
165 1
168 1
J22 8
61 -1
79 -1
97 -1
115 -1
133 -1
163 1
166 1
169 1
J23 8
62 -1
80 -1
98 -1
116 -1
134 -1
164 1
167 1
170 1
J24 8
63 -1
81 -1
99 -1
117 -1
135 -1
171 1
174 1
177 1
J25 8
64 -1
82 -1
100 -1
118 -1
136 -1
172 1
175 1
178 1
J26 8
65 -1
83 -1
101 -1
119 -1
137 -1
173 1
176 1
179 1
J27 8
66 -1
84 -1
102 -1
120 -1
138 -1
180 1
183 1
186 1
J28 8
67 -1
85 -1
103 -1
121 -1
139 -1
181 1
184 1
187 1
J29 8
68 -1
86 -1
104 -1
122 -1
140 -1
182 1
185 1
188 1
J30 8
69 -1
87 -1
105 -1
123 -1
141 -1
189 1
192 1
195 1
J31 8
70 -1
88 -1
106 -1
124 -1
142 -1
190 1
193 1
196 1
J32 8
71 -1
89 -1
107 -1
125 -1
143 -1
191 1
194 1
197 1
J33 12
0 1
3 1
6 1
9 1
12 1
15 1
144 -1
153 -1
162 -1
171 -1
180 -1
189 -1
J34 12
1 1
4 1
7 1
10 1
13 1
16 1
145 -1
154 -1
163 -1
172 -1
181 -1
190 -1
J35 12
2 1
5 1
8 1
11 1
14 1
17 1
146 -1
155 -1
164 -1
173 -1
182 -1
191 -1
J36 12
18 1
21 1
24 1
27 1
30 1
33 1
147 -1
156 -1
165 -1
174 -1
183 -1
192 -1
J37 12
19 1
22 1
25 1
28 1
31 1
34 1
148 -1
157 -1
166 -1
175 -1
184 -1
193 -1
J38 12
20 1
23 1
26 1
29 1
32 1
35 1
149 -1
158 -1
167 -1
176 -1
185 -1
194 -1
J39 12
36 1
39 1
42 1
45 1
48 1
51 1
150 -1
159 -1
168 -1
177 -1
186 -1
195 -1
J40 12
37 1
40 1
43 1
46 1
49 1
52 1
151 -1
160 -1
169 -1
178 -1
187 -1
196 -1
J41 12
38 1
41 1
44 1
47 1
50 1
53 1
152 -1
161 -1
170 -1
179 -1
188 -1
197 -1
J42 4
0 -1
18 -1
36 -1
198 -1
J43 4
1 -1
19 -1
37 -1
199 -1
J44 4
2 -1
20 -1
38 -1
200 -1
J45 4
3 -1
21 -1
39 -1
201 -1
J46 4
4 -1
22 -1
40 -1
202 -1
J47 4
5 -1
23 -1
41 -1
203 -1
J48 4
6 -1
24 -1
42 -1
204 -1
J49 4
7 -1
25 -1
43 -1
205 -1
J50 4
8 -1
26 -1
44 -1
206 -1
J51 4
9 -1
27 -1
45 -1
207 -1
J52 4
10 -1
28 -1
46 -1
208 -1
J53 4
11 -1
29 -1
47 -1
209 -1
J54 4
12 -1
30 -1
48 -1
210 -1
J55 4
13 -1
31 -1
49 -1
211 -1
J56 4
14 -1
32 -1
50 -1
212 -1
J57 4
15 -1
33 -1
51 -1
213 -1
J58 4
16 -1
34 -1
52 -1
214 -1
J59 4
17 -1
35 -1
53 -1
215 -1
J60 6
198 1
201 1
204 1
207 1
210 1
213 1
J61 6
199 1
202 1
205 1
208 1
211 1
214 1
J62 6
200 1
203 1
206 1
209 1
212 1
215 1
J63 15
54 1
55 1
56 1
72 1
73 1
74 1
90 1
91 1
92 1
108 1
109 1
110 1
126 1
127 1
128 1
J64 15
57 1
58 1
59 1
75 1
76 1
77 1
93 1
94 1
95 1
111 1
112 1
113 1
129 1
130 1
131 1
J65 15
60 1
61 1
62 1
78 1
79 1
80 1
96 1
97 1
98 1
114 1
115 1
116 1
132 1
133 1
134 1
J66 15
63 1
64 1
65 1
81 1
82 1
83 1
99 1
100 1
101 1
117 1
118 1
119 1
135 1
136 1
137 1
J67 15
66 1
67 1
68 1
84 1
85 1
86 1
102 1
103 1
104 1
120 1
121 1
122 1
138 1
139 1
140 1
J68 15
69 1
70 1
71 1
87 1
88 1
89 1
105 1
106 1
107 1
123 1
124 1
125 1
141 1
142 1
143 1
J69 18
144 1
145 1
146 1
153 1
154 1
155 1
162 1
163 1
164 1
171 1
172 1
173 1
180 1
181 1
182 1
189 1
190 1
191 1
J70 18
147 1
148 1
149 1
156 1
157 1
158 1
165 1
166 1
167 1
174 1
175 1
176 1
183 1
184 1
185 1
192 1
193 1
194 1
J71 18
150 1
151 1
152 1
159 1
160 1
161 1
168 1
169 1
170 1
177 1
178 1
179 1
186 1
187 1
188 1
195 1
196 1
197 1
J72 9
0 1
1 1
2 1
18 1
19 1
20 1
36 1
37 1
38 1
J73 9
3 1
4 1
5 1
21 1
22 1
23 1
39 1
40 1
41 1
J74 9
6 1
7 1
8 1
24 1
25 1
26 1
42 1
43 1
44 1
J75 9
9 1
10 1
11 1
27 1
28 1
29 1
45 1
46 1
47 1
J76 9
12 1
13 1
14 1
30 1
31 1
32 1
48 1
49 1
50 1
J77 9
15 1
16 1
17 1
33 1
34 1
35 1
51 1
52 1
53 1
J78 18
54 1
55 1
56 1
57 1
58 1
59 1
60 1
61 1
62 1
63 1
64 1
65 1
66 1
67 1
68 1
69 1
70 1
71 1
J79 18
72 1
73 1
74 1
75 1
76 1
77 1
78 1
79 1
80 1
81 1
82 1
83 1
84 1
85 1
86 1
87 1
88 1
89 1
J80 18
90 1
91 1
92 1
93 1
94 1
95 1
96 1
97 1
98 1
99 1
100 1
101 1
102 1
103 1
104 1
105 1
106 1
107 1
J81 18
108 1
109 1
110 1
111 1
112 1
113 1
114 1
115 1
116 1
117 1
118 1
119 1
120 1
121 1
122 1
123 1
124 1
125 1
J82 18
126 1
127 1
128 1
129 1
130 1
131 1
132 1
133 1
134 1
135 1
136 1
137 1
138 1
139 1
140 1
141 1
142 1
143 1
J83 9
144 1
145 1
146 1
147 1
148 1
149 1
150 1
151 1
152 1
J84 9
153 1
154 1
155 1
156 1
157 1
158 1
159 1
160 1
161 1
J85 9
162 1
163 1
164 1
165 1
166 1
167 1
168 1
169 1
170 1
J86 9
171 1
172 1
173 1
174 1
175 1
176 1
177 1
178 1
179 1
J87 9
180 1
181 1
182 1
183 1
184 1
185 1
186 1
187 1
188 1
J88 9
189 1
190 1
191 1
192 1
193 1
194 1
195 1
196 1
197 1
J89 18
0 1
1 1
2 1
3 1
4 1
5 1
6 1
7 1
8 1
9 1
10 1
11 1
12 1
13 1
14 1
15 1
16 1
17 1
J90 18
18 1
19 1
20 1
21 1
22 1
23 1
24 1
25 1
26 1
27 1
28 1
29 1
30 1
31 1
32 1
33 1
34 1
35 1
J91 18
36 1
37 1
38 1
39 1
40 1
41 1
42 1
43 1
44 1
45 1
46 1
47 1
48 1
49 1
50 1
51 1
52 1
53 1
G0 198
0 737
1 737
2 737
3 217
4 217
5 217
6 659
7 659
8 659
9 700
10 700
11 700
12 587
13 587
14 587
15 336
16 336
17 336
18 984
19 984
20 984
21 996
22 996
23 996
24 371
25 371
26 371
27 288
28 288
29 288
30 803
31 803
32 803
33 546
34 546
35 546
36 680
37 680
38 680
39 889
40 889
41 889
42 960
43 960
44 960
45 346
46 346
47 346
48 175
49 175
50 175
51 253
52 253
53 253
54 937
55 937
56 937
57 882
58 882
59 882
60 153
61 153
62 153
63 543
64 543
65 543
66 712
67 712
68 712
69 363
70 363
71 363
72 152
73 152
74 152
75 671
76 671
77 671
78 719
79 719
80 719
81 104
82 104
83 104
84 202
85 202
86 202
87 295
88 295
89 295
90 873
91 873
92 873
93 976
94 976
95 976
96 983
97 983
98 983
99 449
100 449
101 449
102 146
103 146
104 146
105 966
106 966
107 966
108 922
109 922
110 922
111 919
112 919
113 919
114 755
115 755
116 755
117 368
118 368
119 368
120 469
121 469
122 469
123 735
124 735
125 735
126 205
127 205
128 205
129 769
130 769
131 769
132 758
133 758
134 758
135 756
136 756
137 756
138 219
139 219
140 219
141 930
142 930
143 930
144 886
145 886
146 886
147 703
148 703
149 703
150 157
151 157
152 157
153 445
154 445
155 445
156 840
157 840
158 840
159 573
160 573
161 573
162 216
163 216
164 216
165 929
166 929
167 929
168 890
169 890
170 890
171 226
172 226
173 226
174 492
175 492
176 492
177 740
178 740
179 740
180 157
181 157
182 157
183 733
184 733
185 733
186 612
187 612
188 612
189 850
190 850
191 850
192 901
193 901
194 901
195 195
196 195
197 195
