datasets/20l3i.sol
 
couenne: Optimization interrupted by user.

Options
3
4
1
0
92
0
216
216
0
8
5.000000000000011
99.99999999999997
90
80
0
0
0
0
0
0
0
0
0
127.00000000000003
80
2
0
0
0
0
0
0
4.000000000000002
90.99999999999999
103
0
0
0
0
0
0
0
0
0
0
0
0
0
0
0
0
0
0
86.00000000000004
41.000000000000036
150
80
90
60
2.9999999999999534
0
0
0
0
0
0
0
0
60
70
70
0
0
0
0
0
0
0
0
0
0
0
0
0
0
0
0
0
0
0
0
0
0
0
0
60
90
80
0
0
0
0
0
0
0
0
0
7
64
56.99999999999999
63
6
3.000000000000007
0
0
0
0
0
0
0
0
0
0
0
0
15.000000000000004
50
57
0
0
0
54.99999999999999
0
13
53.99999999999998
41.000000000000036
117
0
0
0
6.000000000000009
0
1
0
0
0
80
78.99999999999997
2
0
0
0
0
0
0
0
0
0
53.999999999999986
41.00000000000004
117
0
0
0
0
0
0
0
0
0
66.00000000000001
70
71
0
0
0
0
0
0
18
23.00000000000002
10.999999999999998
4.000000000000002
90.99999999999999
103
0
0
0
143
84.99999999999997
5.000000000000011
0
0
0
0
0
0
0
0
0
0
0
0
115
90
93
50
72
74.99999999999999
0
0
0
46
19.00000000000003
17
3.9999999999999654
8.999999999999966
0
0
0
0
0
0
8
objno 0 422
